NAME : grid49_scaled_100
COMMENT : 7x7 evenly spaced grid, scaled by 100
TYPE : TSP
DIMENSION : 49
EDGE_WEIGHT_TYPE : EUC_2D
NODE_COORD_SECTION
1 0 0
2 100 0
3 200 0
4 300 0
5 400 0
6 500 0
7 600 0
8 0 100
9 100 100
10 200 100
11 300 100
12 400 100
13 500 100
14 600 100
15 0 200
16 100 200
17 200 200
18 300 200
19 400 200
20 500 200
21 600 200
22 0 300
23 100 300
24 200 300
25 300 300
26 400 300
27 500 300
28 600 300
29 0 400
30 100 400
31 200 400
32 300 400
33 400 400
34 500 400
35 600 400
36 0 500
37 100 500
38 200 500
39 300 500
40 400 500
41 500 500
42 600 500
43 0 600
44 100 600
45 200 600
46 300 600
47 400 600
48 500 600
49 600 600
EOF
